72
8 112 198 196 197 199 200
142 157 188 25
166 174 27 161
141 148 45
21 127 169 195
149 61 116 192
151 138 26
19 102
163 120 104 129 191
82 70 181
73 65
16 152 150 189
84 68 179
20 126 177
29 99
88 182 59
98 28
36 143 137
117 11 184
71 69
14 176 132 187
80 67
119 24 175
160 140 18
145 35 139
43 101 180 194
53 77
165 134 12 190
146 49 136 185
1 121
183 91 52
118 56 147
13 105
155 154 5
51 79
60 75
156 38 133
130 66 124
64 96 172
39 93
83 50
48 113 158
6 168 131
58 90 178
94 63 173
92 46 193
159 9 144
42 97
111 41 170
10 107
37 115 167
23 153 135
7 109
86 40
171 31 128
22 100
72 74
44 89
32 95
78 62
4 122 186
17 106
162 33 123
30 108
34 164 125
3 110
85 47
103 15
114 2
55 81
76 54
87 57
